
Gurobi 6.5.2 (win64) logging started 07/24/16 17:25:47


Gurobi 6.5.2 (win64) logging started 07/24/16 17:25:47

Optimize a model with 478 rows, 157 columns and 1071 nonzeros
Coefficient statistics:
  Matrix range    [1e+00, 1e+00]
  Objective range [2e+00, 4e+02]
  Bounds range    [1e+00, 1e+00]
  RHS range       [1e+00, 1e+00]
Found heuristic solution: objective -0
Presolve removed 424 rows and 89 columns
Presolve time: 0.02s
Presolved: 54 rows, 68 columns, 184 nonzeros
Found heuristic solution: objective 1673.0000000
Variable types: 0 continuous, 68 integer (68 binary)

Root relaxation: cutoff, 17 iterations, 0.00 seconds

    Nodes    |    Current Node    |     Objective Bounds      |     Work
 Expl Unexpl |  Obj  Depth IntInf | Incumbent    BestBd   Gap | It/Node Time

     0     0     cutoff    0      1673.00000 1673.99833  0.06%     -    0s

Explored 0 nodes (17 simplex iterations) in 0.02 seconds
Thread count was 8 (of 8 available processors)

Optimal solution found (tolerance 1.00e-04)
Best objective 1.673000000000e+03, best bound 1.673000000000e+03, gap 0.0%

Wrote requested result file 'H1\instance7\\Results7.lp'

